; aiosonic :: corpus-study/repo_src/aiosonic/aiosonic/web_socket_client.py :: wait_for at _get_message:344 :: naive encoding (verdict: unsat)
; Generated by snf-pipeline (encoder.py) -- run with any
; SMT-LIB2-compliant solver, e.g. `z3 aiosonic__corpus-study_repo_src_aiosonic_aiosonic_web_socket_client.py__waitfor__get_message_L344__naive.smt2`
; benchmark generated from python API
(set-info :status unknown)
(declare-fun timeout_fires () Bool)
(declare-fun cleanup_ran () Bool)
(assert
 (= timeout_fires false))
(assert
 (let (($x32 (not cleanup_ran)))
(and timeout_fires $x32)))
(check-sat)
